GLPSOL--GLPK LP/MIP Solver 5.0
Parameter(s) specified in the command line:
 --cpxlp /tmp/7670b24125204ab781d74f32c45bddc8-pulp.lp -o /tmp/7670b24125204ab781d74f32c45bddc8-pulp.out
 -w /tmp/7670b24125204ab781d74f32c45bddc8-pulp.sol --primal --log glpk_primal_simplex_temp.log
Reading problem data from '/tmp/7670b24125204ab781d74f32c45bddc8-pulp.lp'...
15001 rows, 151 columns, 158001 non-zeros
62454 lines were read
GLPK Simplex Optimizer 5.0
15001 rows, 151 columns, 158001 non-zeros
Preprocessing...
14995 rows, 150 columns, 157995 non-zeros
Scaling...
 A: min|aij| =  1.000e-01  max|aij| =  9.375e+00  ratio =  9.375e+01
Problem data seem to be well scaled
Constructing initial basis...
Size of triangular part is 14995
      0: obj =   6.649398145e-01 inf =   4.484e+04 (7440)
   5044: obj =   8.449183584e+01 inf =   4.957e+03 (3099) 49
   9510: obj =   1.217712079e+02 inf =   0.000e+00 (0) 44
* 10076: obj =   1.080360237e+02 inf =   0.000e+00 (0) 6
OPTIMAL LP SOLUTION FOUND
Time used:   10.3 secs
Memory used: 36.2 Mb (37933433 bytes)
Writing basic solution to '/tmp/7670b24125204ab781d74f32c45bddc8-pulp.out'...
Writing basic solution to '/tmp/7670b24125204ab781d74f32c45bddc8-pulp.sol'...
15161 lines were written
